3 
4  36 55 
5  05 13 21 29 36 43 50 57 
6  05 15 23 30 38 45 53 
7  00 08 15 23 30 38 45 53 
8  00 08 15 23 30 38 45 53 
9  00 08 15 23 30 38 45 53 
10  00 08 15 23 30 38 45 53 
11  00 08 15 23 30 38 45 53 
12  00 08 15 23 30 38 45 53 
13  00 08 15 23 30 38 45 53 
14  00 08 15 23 30 38 45 53 
15  00 08 15 23 30 38 45 53 
16  00 08 15 23 30 38 45 53 
17  00 08 15 23 30 38 45 53 
18  00 08 15 23 30 38 45 53 
19  00 08 15 23 32 47 
20  02 17 30 45 
21  00 15 30 45 
22  00 15 30 47 
23 
